benchmarks_vrp/CMT4/tsp_classic/CMT4_2.vrp
NAME: CMT4_2
TYPE: CVRP
COMMENT: 1028.42 - Cluster Nr.2
DIMENSION: 12
CAPACITY: 200
EDGE_WEIGHT_TYPE: EUC_2D
NODE_COORD_TYPE: TWOD_COORDS
NODE_COORD_SECTION: 
11 20 26
3 17 33
8 11 31
10 15 30
2 12 24
4 18 24
9 5 30
1 35 35
7 16 22
6 17 34
5 5 25
12 20 26
DEPOT_SECTION: 
1
-1
DEMAND_SECTION: 
7 41
10 26
11 9
9 2
6 3
12 9
1 0
3 41
5 23
2 13
4 22
8 7
EOF
