benchmarks_vrp/CMT4/tsp_classic/CMT4_2.tour
NAME: CMT4_2 solution
TYPE: TOUR
TOUR_SECTION:
1 6 3 10 8 9 5 2 7 4 11 12 -1
-1
EOF